proyfinal/src/viki/013/experimentInOfficeAgust.take6.output/16f4498f-0496-47d9-9fd6-81a1bea98dcc.als.out
Reading from standard input... Use '--help' for help.
============================[ Problem Statistics ]=============================
|                                                                             |
|  Number of variables:         87638                                         |
|  Number of clauses:          161767                                         |
|  Parse time:                   0.03 s                                       |
|                                                                             |
============================[ Search Statistics ]==============================
| Conflicts |          ORIGINAL         |          LEARNT          | Progress |
|           |    Vars  Clauses Literals |    Limit  Clauses Lit/Cl |          |
===============================================================================
|       100 |   62284   104788   261930 |    38422      100     10 | 28.930 % |
|       250 |   62284   104788   261930 |    42264      250     53 | 28.930 % |
|       475 |   62284   104788   261930 |    46490      475     94 | 28.930 % |
|       812 |   62283   104744   261840 |    51140      810     77 | 28.932 % |
|      1318 |   62257   104601   261528 |    56254     1217    121 | 28.961 % |
|      2077 |   62237   104523   261338 |    61879     1772    112 | 28.984 % |
|      3216 |   62172   104280   260693 |    68067     2886    119 | 29.058 % |
===============================================================================
restarts              : 19
conflicts             : 3658           (6668 /sec)
decisions             : 12168          (0.00 % random) (22182 /sec)
propagations          : 5610877        (10228393 /sec)
conflict literals     : 492277         (34.97 % deleted)
Memory used           : 28.09 MB
CPU time              : 0.548559 s

UNSATISFIABLE
